100
32
28
30
3
29
31
28
1
11
21
24
14
1
2
27
29
28
12
21
27
20
4
28
20
6
8
24
29
16
19
19
14
32
20
30
32
13
9
30
22
8
23
1
17
24
30
19
15
20
21
21
6
14
2
26
20
16
32
23
2
2
28
12
23
17
1
1
23
6
20
11
19
7
9
17
26
12
24
21
17
7
21
29
18
12
18
21
19
21
3
7
28
28
17
19
16
20
28
30
19
5